NAME          ClpDefau
ROWS
 N  OBJROW
 L  R_240_0
 L  R_240_1
 L  R_240_2
 L  R_240_3
 L  R_240_4
 L  R_240_5
 L  R_240_6
 L  R_240_7
COLUMNS
    x_0       OBJROW     -8.           R_240_1   9.          
    x_0       R_240_3   8.             R_240_4   1.          
    x_0       R_240_6   6.          
    x_1       OBJROW     -12.          R_240_0   9.          
    x_1       R_240_1   3.             R_240_2   1.          
    x_1       R_240_3   3.             R_240_4   9.          
    x_1       R_240_5   9.             R_240_6   3.          
    x_2       OBJROW     -11.          R_240_0   7.          
    x_2       R_240_1   6.             R_240_2   6.          
    x_2       R_240_3   8.             R_240_4   7.          
    x_2       R_240_5   8.             R_240_6   4.          
    x_2       R_240_7   8.          
    x_3       OBJROW     -47.          R_240_0   6.          
    x_3       R_240_1   8.             R_240_3   10.         
    x_3       R_240_4   9.             R_240_5   8.          
    x_3       R_240_6   6.          
    x_4       OBJROW     -22.          R_240_2   8.          
    x_4       R_240_3   9.             R_240_4   9.          
    x_4       R_240_5   10.            R_240_6   4.          
    x_4       R_240_7   6.          
    x_5       OBJROW     -95.          R_240_1   2.          
    x_5       R_240_2   6.             R_240_3   4.          
    x_5       R_240_5   10.            R_240_6   5.          
    x_5       R_240_7   2.          
    x_6       OBJROW     -86.          R_240_0   3.          
    x_6       R_240_2   4.             R_240_4   1.          
    x_6       R_240_5   6.             R_240_6   1.          
    x_6       R_240_7   2.          
    x_7       OBJROW     -40.          R_240_0   1.          
    x_7       R_240_1   3.             R_240_3   3.          
    x_7       R_240_4   1.             R_240_5   1.          
    x_7       R_240_6   4.             R_240_7   1.          
    x_8       OBJROW     -33.          R_240_0   10.         
    x_8       R_240_1   2.             R_240_2   8.          
    x_8       R_240_3   8.             R_240_4   10.         
    x_8       R_240_5   5.             R_240_6   10.         
    x_8       R_240_7   8.          
    x_9       OBJROW     -78.          R_240_1   6.          
    x_9       R_240_3   3.             R_240_4   7.          
    x_9       R_240_5   6.             R_240_6   6.          
    x_9       R_240_7   10.         
    x_10      OBJROW     -28.          R_240_1   9.          
    x_10      R_240_3   5.             R_240_4   3.          
    x_10      R_240_5   8.             R_240_6   9.          
    x_11      OBJROW     -78.          R_240_0   1.          
    x_11      R_240_2   8.             R_240_3   2.          
    x_11      R_240_4   10.            R_240_5   10.         
    x_11      R_240_6   5.             R_240_7   5.          
    x_12      OBJROW     -5.           R_240_0   1.          
    x_12      R_240_1   7.             R_240_2   2.          
    x_12      R_240_3   2.             R_240_4   2.          
    x_12      R_240_5   4.             R_240_6   1.          
    x_12      R_240_7   8.          
    x_13      OBJROW     -75.          R_240_0   9.          
    x_13      R_240_1   4.             R_240_2   4.          
    x_13      R_240_3   7.             R_240_4   1.          
    x_13      R_240_5   1.          
    x_14      OBJROW     -88.          R_240_0   2.          
    x_14      R_240_1   8.             R_240_2   9.          
    x_14      R_240_4   6.             R_240_5   6.          
    x_14      R_240_6   7.             R_240_7   5.          
    x_15      OBJROW     -21.          R_240_0   1.          
    x_15      R_240_2   8.             R_240_3   10.         
    x_15      R_240_4   1.             R_240_5   6.          
    x_15      R_240_6   2.             R_240_7   8.          
RHS
    RHS       R_240_0   40.            R_240_1   30.         
    RHS       R_240_2   63.            R_240_3   66.         
    RHS       R_240_4   75.            R_240_5   33.         
    RHS       R_240_6   60.            R_240_7   66.         
BOUNDS
 UI BOUND     x_0       100.        
 UI BOUND     x_1       100.        
 UI BOUND     x_2       100.        
 UI BOUND     x_3       100.        
 UI BOUND     x_4       100.        
 UI BOUND     x_5       100.        
 UI BOUND     x_6       100.        
 UI BOUND     x_7       100.        
 UI BOUND     x_8       100.        
 UI BOUND     x_9       100.        
 UI BOUND     x_10      100.        
 UI BOUND     x_11      100.        
 UI BOUND     x_12      100.        
 UI BOUND     x_13      100.        
 UI BOUND     x_14      100.        
 UI BOUND     x_15      100.        
ENDATA
